TP5/multiDKnapsack.lp
\ENCODING=ISO-8859-1
\Problem name: TP4

Maximize
 obj1: 1543444973 x_j0 + 1074760950 x_j1 + 1825339205 x_j2 + 1075985314 x_j3
       - 906136233 x_j4 + 1075755691 x_j5 - 1169805032 x_j6 + 1074993291 x_j7
       - 1365699981 x_j8 + 1075087673 x_j9
Subject To
 capacity_1: 84 x_j0 + 16 x_j1 + 87 x_j2 + 22 x_j3 + 91 x_j4 + 27 x_j5
             + 73 x_j6 + 69 x_j7 + 83 x_j8 + 24 x_j9 <= 100
Bounds
 0 <= x_j0 <= 1
 0 <= x_j1 <= 1
 0 <= x_j2 <= 1
 0 <= x_j3 <= 1
 0 <= x_j4 <= 1
 0 <= x_j5 <= 1
 0 <= x_j6 <= 1
 0 <= x_j7 <= 1
 0 <= x_j8 <= 1
 0 <= x_j9 <= 1
Binaries
 x_j0  x_j1  x_j2  x_j3  x_j4  x_j5  x_j6  x_j7  x_j8  x_j9 
End
